unsat
(define-fun inv ((s (_ BitVec 4)) (t (_ BitVec 4))) (_ BitVec 4) (bvneg t))
0.04user 0.00system 0:00.05elapsed 84%CPU (0avgtext+0avgdata 25404maxresident)k
8inputs+8outputs (0major+1066minor)pagefaults 0swaps
